
(set-logic ALL) 

(declare-datatype MyList ((Nil) (Cons (head Real) (tail MyList)) )) 
(declare-fun l0 () MyList) 
(declare-fun l1 () MyList) 
(declare-fun l2 () MyList) 
(declare-fun l3 () MyList) 
(declare-fun i0 () Real) 
(declare-fun i1 () Real) 
(assert (not (= l1 l1)) )
(assert (is-Nil l1) )
(assert (is-Nil Nil) )
(assert (= l1 l0) )
(assert (or (= l0 Nil) (is-Cons l3)) )
(assert (is-Nil Nil) )
(assert (= l2 l2) )
(assert (= l0 Nil) )
(check-sat)
